param set_len = 22;
param target_sum = 6144332996;
param values := [1] 768243836 [2] 250491875 [3] 597824813 [4] 128196061 [5] 343275771 [6] 430019159 [7] 759785013 [8] 540594804 [9] 921609481 [10] 1056173941 [11] 764715403 [12] 420751812 [13] 54401437 [14] 53714450 [15] 346346142 [16] 1064308818 [17] 433267787 [18] 847425558 [19] 902452944 [20] 1071119936 [21] 163200609 [22] 332670747 ;
